c description: Random 3-CNF over 15 variables and 110 clauses
c generator: CNFgen (0.9.0)
c copyright: (C) 2012-2020 Massimo Lauria <massimo.lauria@uniroma1.it>
c url: https://massimolauria.net/cnfgen
c
p cnf 15 110
5 7 -10 0
4 -5 15 0
-1 8 11 0
-4 -11 13 0
-5 12 -13 0
-2 4 15 0
-6 13 15 0
9 -11 -14 0
5 -12 -13 0
2 6 8 0
-5 -7 -11 0
-1 -2 -12 0
3 -8 -11 0
-1 2 -6 0
4 -9 -15 0
6 -7 -9 0
-5 9 11 0
6 -8 -14 0
-8 -9 -15 0
-2 6 10 0
-3 10 -12 0
3 -6 -8 0
-3 14 15 0
-5 -14 -15 0
3 -5 -13 0
10 11 13 0
-4 7 -15 0
-5 -6 13 0
5 7 -12 0
3 9 12 0
8 10 -12 0
9 14 15 0
7 -12 -13 0
-2 -10 11 0
1 -8 -15 0
3 7 10 0
-3 -9 -15 0
-6 -12 -15 0
-2 9 -14 0
1 -14 15 0
6 9 -14 0
-10 11 15 0
-5 8 12 0
2 6 13 0
-6 -9 -10 0
2 -13 -14 0
-3 7 9 0
2 5 -6 0
-2 -4 12 0
2 -6 8 0
3 -6 -10 0
-6 -14 -15 0
1 4 -14 0
7 -12 13 0
-3 -9 -14 0
-4 -5 -15 0
-6 -8 -12 0
6 -14 -15 0
2 4 -9 0
3 4 -11 0
3 7 -11 0
-8 9 -15 0
5 -9 12 0
-2 5 7 0
-1 -4 -9 0
-2 7 -9 0
1 -11 13 0
1 7 -9 0
10 12 -13 0
-1 -3 4 0
-10 12 14 0
-1 3 -15 0
-2 -6 -7 0
-3 -10 15 0
-2 9 10 0
3 -5 -9 0
6 -8 -10 0
3 -11 13 0
-4 6 9 0
-3 10 13 0
-5 12 15 0
-6 -10 14 0
3 5 -9 0
-3 -4 14 0
-6 9 -14 0
1 -11 12 0
4 6 7 0
6 -9 -13 0
10 -12 -15 0
-1 13 -14 0
-9 -13 -14 0
-9 10 14 0
5 8 -14 0
4 -8 -10 0
4 9 -10 0
-5 -7 -12 0
11 -14 -15 0
-3 6 -15 0
-2 4 10 0
-2 -7 -13 0
-2 -7 12 0
-1 2 3 0
-6 -7 -14 0
-3 -10 -11 0
3 9 15 0
-3 -5 -15 0
-6 -8 9 0
-4 11 15 0
2 7 12 0
1 -2 -6 0